(set-logic QF_S)
(declare-fun _var_0xINPUT_60451_() String)
(declare-fun __woorpje_diseq_pref0_() String)
(declare-fun __woorpje_diseq_suf_l0_() String)
(declare-fun __woorpje_diseq_suf_r0_() String)
(declare-fun __woorpje_diseq_pref1_() String)
(declare-fun __woorpje_diseq_suf_l1_() String)
(declare-fun __woorpje_diseq_suf_r1_() String)
(assert (=(str.++  "K9BOAGJDFi" "")(str.++ __woorpje_diseq_pref0_  "G" __woorpje_diseq_suf_l0_  "")) )
(assert (=(str.++ _var_0xINPUT_60451_  "")(str.++ __woorpje_diseq_pref0_  "i" __woorpje_diseq_suf_r0_  "")) )
(assert  (<= (* (str.len _var_0xINPUT_60451_)(- 1)) (- 1)) )
(check-sat)
